1 1 1 1 2 480
  3   14.85   14.85   0.1   0.0

  0   0.00   0.00   0    0   0    0   480
  1  -3.49   2.12	3   30   1  120   135
  2   1.69   4.14   3    0  -1    0  1440
  3   0.00   0.00   0    0   0    0   480
  4   0.00   0.00   0    0   0    0   480
  5   6.00   2.50   0    0   0    0   480

0.0 0.0
